id: 388
name: nsct1
group: meszaros/misc
method: 1

Gurobi 7.0.2 (linux64, Matlab) logging started Tue Apr 17 15:58:11 2018


Gurobi 7.0.2 (linux64) logging started Tue Apr 17 15:58:11 2018

Optimize a model with 22901 rows, 14981 columns and 656259 nonzeros
Coefficient statistics:
  Matrix range     [1e+00, 1e+05]
  Objective range  [1e+00, 1e+00]
  Bounds range     [0e+00, 0e+00]
  RHS range        [1e+00, 1e+06]
Presolve removed 15205 rows and 3684 columns
Presolve time: 0.10s
Presolved: 7696 rows, 11297 columns, 589578 nonzeros

Iteration    Objective       Primal Inf.    Dual Inf.      Time
       0   -4.1319138e+07   2.585787e+02   0.000000e+00      0s
    1122   -3.8922436e+07   0.000000e+00   0.000000e+00      0s

Solved in 1122 iterations and 0.16 seconds
Optimal objective -3.892243600e+07
status: OPTIMAL
